c Output_time 26.03.2020 18:15:12_+0100 1585242912170198886
c ** Program information **
c program_name                          "QBRG_debug"
c version                               "0.3.20"
c date                                  "25.3.2020"
c gid_id                                "673970833836058123f633335630c185360d632e"
c author                                "Oliver Kullmann"
c url                                   "https://github.com/OKullmann/oklibrary/blob/master/Satisfiability/Transformers/Generators/Random/QBRG.cpp"
c ** Machine information **
c machine_name                          "chyna-Lenovo-G50-70"
c bogomips                              3791.08
c ** Compilation information **
c compiler_version                      "g++ 7.5.0"
c compilation_date                      "Mar_26_2020 11:16:30"
c compilation_options                   "--std=c++17 -pedantic -fmax-errors=5 -Wall -Wextra -g -D_GLIBCXX_DEBUG"
c NDEBUG                                0
c OPTIMIZE                              0
c ** Parameters **
c command-line                          "./QBRG_debug" "a40 e40 a40 40" "229*1,1|2-2,1|3-3,1|4-4,1" "" "1,t" ""
c output                                "QuBlRaGe_160_229_1585242912170002242.qdimacs"
c options                               "filtered,renamed"
c num_quantifier_blocks                 4
c  quantifier_blocks                    1:a1-40 2:e41-80 3:a81-120 4:e121-160
c num_clause-blocks                     1
c  clause-blocks                        229 * {1-40,1,1/2} | {41-80,1,1/2} | {81-120,1,1/2} | {121-160,1,1/2}
c num_e-seeds                           37+2=39
c  e-seeds                              1 0 1 0 5 160 2 40 0 40 1 40 0 40 1 229 4 1 1 1 1 2 2 2 1 1 2 3 3 1 1 2 4 4 1 1 2 1 1585242912170001641
p cnf 158 229
a 1 2 3 4 5 6 7 8 9 10 11 12 13 14 15 16 17 18 19 20 21 22 23 24 25 26 27 28 29 30 31 32 33 34 35 36 37 38 39 40 0
e 41 42 43 44 45 46 47 48 49 50 51 52 53 54 55 56 57 58 59 60 61 62 63 64 65 66 67 68 69 70 71 72 73 74 75 76 77 78 79 80 0
a 81 82 83 84 85 86 87 88 89 90 91 92 93 94 95 96 97 98 99 100 101 102 103 104 105 106 107 108 109 110 111 112 113 114 115 116 117 118 119 0
e 120 121 122 123 124 125 126 127 128 129 130 131 132 133 134 135 136 137 138 139 140 141 142 143 144 145 146 147 148 149 150 151 152 153 154 155 156 157 158 0
-9 -54 91 -120 0
32 -51 -117 -120 0
-16 -47 117 -120 0
-24 59 87 120 0
-14 -59 -95 120 0
-19 -71 104 120 0
23 -52 119 120 0
9 58 119 120 0
-37 -75 -90 -121 0
-15 75 -115 -121 0
-11 46 -116 -121 0
11 -61 -90 121 0
-13 -56 105 121 0
-25 76 -119 121 0
30 69 83 -122 0
7 -63 91 -122 0
-4 56 102 -122 0
38 53 -105 -122 0
33 -76 111 -122 0
-9 68 87 122 0
11 -76 90 122 0
29 58 92 122 0
-9 -63 100 -123 0
29 -80 117 -123 0
-33 46 95 123 0
-31 -64 98 123 0
-8 74 -101 123 0
-14 72 -107 123 0
9 -41 118 123 0
-6 -78 88 -124 0
-1 -47 -85 124 0
-1 -72 -86 124 0
38 41 -96 124 0
-40 -60 -107 124 0
5 -79 90 -125 0
37 -59 -108 -125 0
17 -71 -108 -125 0
-33 -47 88 125 0
2 74 91 125 0
36 -76 -93 125 0
-23 -56 81 -126 0
-40 -76 98 -126 0
-25 53 -102 -126 0
9 64 108 -126 0
9 77 -113 -126 0
-16 -80 85 126 0
4 52 -97 126 0
30 71 108 126 0
-13 -76 -110 -127 0
14 -57 84 127 0
10 -66 -88 127 0
-23 60 105 127 0
-12 -71 106 127 0
-22 56 -92 -128 0
36 44 94 -128 0
14 71 100 -128 0
16 61 98 128 0
13 42 -105 128 0
35 79 -110 128 0
35 58 -89 -129 0
36 -74 107 -129 0
25 -51 102 129 0
30 -76 -109 129 0
-21 -50 -119 129 0
-21 47 -87 -130 0
-20 58 103 -130 0
-18 -48 -85 130 0
29 -70 95 130 0
27 43 99 130 0
30 73 112 -131 0
-31 -61 85 131 0
6 61 -108 131 0
40 52 116 131 0
-26 -49 -86 -132 0
14 77 -88 -132 0
-40 -71 102 -132 0
-18 -54 -103 -132 0
28 66 115 -132 0
13 -77 118 -132 0
19 73 119 -132 0
9 46 88 132 0
33 70 -93 132 0
-21 -55 97 132 0
13 -70 -103 132 0
-13 -77 103 132 0
5 47 -110 132 0
33 64 -116 132 0
-13 76 84 -133 0
-10 62 88 -133 0
-6 -74 -92 -133 0
16 -44 95 -133 0
-37 67 -88 133 0
6 -69 -94 133 0
33 -73 -101 133 0
-14 50 -112 133 0
21 -56 115 133 0
25 48 82 -134 0
29 43 92 -134 0
25 58 -104 -134 0
27 68 116 -134 0
3 56 119 -134 0
-3 -79 86 134 0
-6 49 89 134 0
13 -46 91 134 0
-40 63 -99 -135 0
37 -54 -102 -135 0
31 -51 -112 -135 0
-13 -70 -95 135 0
-22 -77 98 135 0
-4 -49 -99 135 0
-14 -80 -103 135 0
1 58 -97 -136 0
-28 79 -103 -136 0
-26 -61 105 -136 0
33 45 116 136 0
-37 72 109 -137 0
27 -55 -107 137 0
-33 -46 116 137 0
-34 -72 119 137 0
1 69 -102 -138 0
-27 -69 -105 -138 0
2 -64 96 138 0
13 -43 -94 139 0
6 76 104 139 0
8 62 -99 -140 0
6 -61 92 140 0
-28 66 95 140 0
-6 -62 100 140 0
-36 -46 119 -141 0
-26 42 -82 141 0
17 -75 85 141 0
32 -47 86 141 0
14 61 90 141 0
18 61 -97 141 0
-15 -74 113 141 0
-19 -49 93 -142 0
-29 56 -109 -142 0
15 -78 -108 142 0
-13 51 116 142 0
-39 61 86 -143 0
7 63 -91 -143 0
-2 -42 92 -143 0
-13 -63 -93 -143 0
30 66 -98 143 0
-4 80 -102 143 0
32 75 -89 -144 0
15 -41 94 -144 0
18 64 96 -144 0
8 -49 102 -144 0
5 66 -110 -144 0
37 53 116 -144 0
-32 -56 -85 144 0
9 -66 102 144 0
13 46 -111 144 0
-14 43 -96 -145 0
-13 -65 108 -145 0
39 45 111 145 0
15 49 -99 -146 0
20 48 -117 -146 0
16 50 -117 -146 0
-20 66 -116 146 0
-39 -56 -103 -147 0
-19 -53 103 -147 0
28 58 105 -147 0
40 -80 110 -147 0
-30 66 115 -147 0
-13 -65 -82 147 0
-1 -44 85 147 0
-30 -45 -101 147 0
25 76 113 147 0
13 62 88 -148 0
34 -49 -89 -148 0
-35 60 -100 -148 0
-38 80 -102 -148 0
33 69 114 -148 0
-12 72 -85 148 0
16 -44 -86 148 0
1 -47 87 148 0
34 -67 -96 148 0
14 77 99 148 0
-7 61 -104 148 0
17 -57 84 -149 0
33 -57 108 -149 0
-17 -78 -101 149 0
-38 63 108 149 0
18 -48 -88 -150 0
-25 43 103 -150 0
22 -58 109 -150 0
-2 71 -116 -150 0
24 74 -118 150 0
-32 60 -97 -151 0
-25 -56 -108 -151 0
-29 46 -87 151 0
11 78 119 151 0
40 66 -100 -152 0
17 45 91 152 0
40 74 -93 152 0
-4 -76 -102 152 0
15 -46 114 152 0
-39 72 88 -153 0
33 50 99 -153 0
-4 -45 92 153 0
24 58 102 153 0
11 -57 106 153 0
-11 -67 96 -154 0
-12 45 -100 -154 0
20 61 98 154 0
15 -65 -101 154 0
-7 67 88 -155 0
-26 -45 102 -155 0
-15 45 109 -155 0
29 -72 -96 155 0
-39 77 -96 155 0
12 -58 87 -156 0
-26 78 -89 -156 0
23 53 111 -156 0
25 71 -87 156 0
-30 -47 -96 156 0
26 55 -117 156 0
16 -64 82 -157 0
-24 -50 -100 -157 0
-15 69 85 157 0
-27 -49 97 157 0
36 -46 117 157 0
34 -50 93 -158 0
29 42 108 -158 0
16 -44 -84 158 0
-10 -69 -85 158 0
-24 -58 -105 158 0
